(set-info :smt-lib-version 2.6)
(set-logic QF_UF)
(set-info :source |
Generated by: David Deharbe, CLEARSY
Generated on: 2019-09-09
Generator: bxml;pog;pog2smt (Atelier B)
Application: B-method
Target solver: CVC4, Z3
|)
(set-info :license "https://creativecommons.org/licenses/by-nc/4.0/")
(set-info :category "industrial")
(set-info :status unknown)
; Prelude
(declare-sort U 0)
(declare-fun |*i| (U U) U)
(declare-fun |+i| (U U) U)
(declare-fun |-i| (U U) U)
(declare-fun idiv (U U) U)
(declare-fun |*r| (U U) U)
(declare-fun |+r| (U U) U)
(declare-fun |-r| (U U) U)
(declare-fun rdiv (U U) U)
(declare-fun modulo (U U) U)
(declare-fun |<i| (U U) Bool)
(declare-fun |<=i| (U U) Bool)
(declare-fun |>i| (U U) Bool)
(declare-fun |>=i| (U U) Bool)
(declare-fun |<r| (U U) Bool)
(declare-fun |<=r| (U U) Bool)
(declare-fun |>r| (U U) Bool)
(declare-fun |>=r| (U U) Bool)
(declare-fun iuminus (U) U)
(declare-fun ruminus (U) U)
(declare-fun TRUE () U)
(declare-fun FALSE () U)
(assert (not (= TRUE FALSE)))
(declare-fun empty () U)
(declare-fun bool (Bool) U)
(declare-fun BOOL () U)
(declare-fun INT () U)
(declare-fun INTEGER () U)
(declare-fun NAT () U)
(declare-fun NAT1 () U)
(declare-fun NATURAL () U)
(declare-fun NATURAL1 () U)
(declare-fun FLOAT () U)
(declare-fun MaxInt () U)
(declare-fun MinInt () U)
(declare-fun |STRING| () U)
(declare-fun REAL () U)
(declare-fun set_prod (U U) U)
(declare-fun set_diff (U U) U)
(declare-fun mapplet (U U) U)
(declare-fun |**i| (U U) U)
(declare-fun |**r| (U U) U)
(declare-fun |+->| (U U) U)
(declare-fun |+->>| (U U) U)
(declare-fun |-->| (U U) U)
(declare-fun |-->>| (U U) U)
(declare-fun |<->| (U U) U)
(declare-fun |>+>| (U U) U)
(declare-fun |>->| (U U) U)
(declare-fun |>+>>| (U U) U)
(declare-fun |>->>| (U U) U)
(declare-fun |->| (U U) U)
(declare-fun interval (U U) U)
(declare-fun composition (U U) U)
(declare-fun binary_inter (U U) U)
(declare-fun restriction_head (U U) U)
(declare-fun semicolon (U U) U)
(declare-fun |<+| (U U) U)
(declare-fun |<-| (U U) U)
(declare-fun domain_subtraction (U U) U)
(declare-fun domain_restriction (U U) U)
(declare-fun |><| (U U) U)
(declare-fun parallel_product (U U) U)
(declare-fun binary_union (U U) U)
(declare-fun restriction_tail (U U) U)
(declare-fun concatenate (U U) U)
(declare-fun range_restriction (U U) U)
(declare-fun range_subtraction (U U) U)
(declare-fun image (U U) U)
(declare-fun apply (U U) U)
(declare-fun prj1 (U U) U)
(declare-fun prj2 (U U) U)
(declare-fun iterate (U U) U)
(declare-fun |const| (U U) U)
(declare-fun rank (U U) U)
(declare-fun father (U U) U)
(declare-fun subtree (U U) U)
(declare-fun arity (U U) U)
(declare-fun |+f| (U U) U)
(declare-fun |-f| (U U) U)
(declare-fun |*f| (U U) U)
(declare-fun |fdiv| (U U) U)
(declare-fun tbin (U U U) U)
(declare-fun son (U U U) U)
(declare-fun mem (U U) Bool)
(declare-fun subset (U U) Bool)
(declare-fun strict_subset (U U) Bool)
(declare-fun |<=f| (U U) Bool)
(declare-fun |<f| (U U) Bool)
(declare-fun |>=f| (U U) Bool)
(declare-fun |>f| (U U) Bool)
(declare-fun imax (U) U)
(declare-fun imin (U) U)
(declare-fun rmax (U) U)
(declare-fun rmin (U) U)
(declare-fun card (U) U)
(declare-fun dom (U) U)
(declare-fun ran (U) U)
(declare-fun POW (U) U)
(declare-fun POW1 (U) U)
(declare-fun FIN (U) U)
(declare-fun FIN1 (U) U)
(declare-fun union (U) U)
(declare-fun inter (U) U)
(declare-fun seq (U) U)
(declare-fun seq1 (U) U)
(declare-fun iseq (U) U)
(declare-fun iseq1 (U) U)
(declare-fun inverse (U) U)
(declare-fun size (U) U)
(declare-fun perm (U) U)
(declare-fun first (U) U)
(declare-fun last (U) U)
(declare-fun id (U) U)
(declare-fun closure (U) U)
(declare-fun closure1 (U) U)
(declare-fun tail (U) U)
(declare-fun front (U) U)
(declare-fun reverse (U) U)
(declare-fun rev (U) U)
(declare-fun conc (U) U)
(declare-fun succ (U) U)
(declare-fun pred (U) U)
(declare-fun rel (U) U)
(declare-fun fnc (U) U)
(declare-fun real (U) U)
(declare-fun floor (U) U)
(declare-fun ceiling (U) U)
(declare-fun tree (U) U)
(declare-fun btree (U) U)
(declare-fun top (U) U)
(declare-fun sons (U) U)
(declare-fun prefix (U) U)
(declare-fun postfix (U) U)
(declare-fun sizet (U) U)
(declare-fun mirror (U) U)
(declare-fun left (U) U)
(declare-fun right (U) U)
(declare-fun infix (U) U)
(declare-fun ubin (U) U)
(declare-fun SEQ (U) U)
(declare-fun SET (U) U)
; Opaque formulas
(declare-fun e0 () U)
(declare-fun e17 () U)
(declare-fun g_s0_1 () U)
(declare-fun g_s1_2 () U)
(declare-fun g_s10_11 () U)
(declare-fun g_s11_12 () U)
(declare-fun g_s12_13 () U)
(declare-fun g_s15_16 () U)
(declare-fun g_s16_18 () U)
(declare-fun g_s17_19 () U)
(declare-fun g_s18_20 () U)
(declare-fun g_s19_21 () U)
(declare-fun g_s2_3 () U)
(declare-fun g_s20_22 () U)
(declare-fun g_s21_23 () U)
(declare-fun g_s22_24 () U)
(declare-fun g_s23_25 () U)
(declare-fun g_s24_26 () U)
(declare-fun g_s25_27 () U)
(declare-fun g_s26_28 () U)
(declare-fun g_s27_29 () U)
(declare-fun g_s28_30 () U)
(declare-fun g_s29_31 () U)
(declare-fun g_s3_4 () U)
(declare-fun g_s30_32 () U)
(declare-fun g_s31_33 () U)
(declare-fun g_s32_34 () U)
(declare-fun g_s33_35 () U)
(declare-fun g_s34_36 () U)
(declare-fun g_s35_37 () U)
(declare-fun g_s36_38 () U)
(declare-fun g_s37_39 () U)
(declare-fun g_s38_40 () U)
(declare-fun g_s39_41 () U)
(declare-fun g_s4_5 () U)
(declare-fun g_s40_42 () U)
(declare-fun g_s41_43 () U)
(declare-fun g_s42_44 () U)
(declare-fun g_s43_45 () U)
(declare-fun g_s44_46 () U)
(declare-fun g_s45_47 () U)
(declare-fun g_s46_48 () U)
(declare-fun g_s47_49 () U)
(declare-fun g_s48_50 () U)
(declare-fun g_s49_51 () U)
(declare-fun g_s5_6 () U)
(declare-fun g_s50_52 () U)
(declare-fun g_s51_53 () U)
(declare-fun g_s52_54 () U)
(declare-fun g_s53_55 () U)
(declare-fun g_s54_56 () U)
(declare-fun g_s55_57 () U)
(declare-fun g_s6_7 () U)
(declare-fun g_s61_58 () U)
(declare-fun g_s7_8 () U)
(declare-fun g_s8_9 () U)
(declare-fun g_s9_10 () U)
(declare-fun e15 () U)
(declare-fun e14 () U)
; Defines
(define-fun |def_B definitions| () Bool (and (= NAT (interval e0 MaxInt)) (= INT (interval MinInt MaxInt))))
(define-fun |def_ctx| () Bool (and (not (= g_s0_1 empty)) (not (= g_s1_2 empty)) (not (= g_s2_3 empty)) (not (= g_s3_4 empty)) (not (= g_s4_5 empty)) (not (= g_s5_6 empty)) (not (= g_s6_7 empty)) (not (= g_s7_8 empty)) (not (= g_s8_9 empty)) (not (= g_s9_10 empty)) (not (= g_s10_11 empty)) (not (= g_s11_12 empty)) (mem g_s12_13 (|-->| (set_prod INTEGER NATURAL) INTEGER)) (= g_s12_13 (binary_union e15 e14)) (mem g_s15_16 (|-->| BOOL NAT)) (= g_s15_16 (SET (mapplet (mapplet FALSE e0) (mapplet TRUE e17)))) (= g_s16_18 INT) (= g_s17_19 NAT) (= g_s18_20 NAT1) (subset g_s18_20 g_s17_19) (subset g_s17_19 g_s16_18) (mem g_s19_21 g_s16_18) (mem g_s19_21 g_s17_19) (not (mem g_s19_21 g_s18_20)) (mem g_s20_22 g_s16_18) (not (mem g_s20_22 g_s17_19)) (= g_s21_23 INT) (subset g_s22_24 g_s10_11) (mem g_s23_25 g_s10_11) (mem g_s23_25 g_s22_24) (mem g_s24_26 g_s10_11) (not (mem g_s24_26 g_s22_24)) (mem g_s25_27 (|+->| NAT g_s10_11)) (mem g_s25_27 (perm g_s22_24)) (= (card g_s22_24) g_s26_28) (subset g_s27_29 g_s11_12) (mem g_s28_30 g_s11_12) (mem g_s28_30 g_s27_29) (mem g_s29_31 g_s11_12) (not (mem g_s29_31 g_s27_29)) (mem g_s30_32 (|+->| NAT g_s11_12)) (mem g_s30_32 (perm g_s27_29)) (= (card g_s27_29) g_s31_33)))
(define-fun |def_seext| () Bool  (mem g_s32_34 g_s8_9))
(define-fun |def_lprp| () Bool (and (= g_s33_35 (SET (mapplet g_s39_41 (mapplet g_s38_40 (mapplet g_s37_39 (mapplet g_s36_38 (mapplet g_s35_37 g_s34_36))))))) (= g_s40_42 (SET (mapplet g_s43_45 (mapplet g_s42_44 g_s41_43)))) (= g_s44_46 (SET (mapplet g_s51_53 (mapplet g_s50_52 (mapplet g_s49_51 (mapplet g_s48_50 (mapplet g_s47_49 (mapplet g_s46_48 g_s45_47)))))))) (subset g_s52_54 g_s16_18) (subset g_s53_55 g_s52_54) (= g_s53_55 g_s18_20) (mem g_s54_56 g_s52_54) (not (mem g_s54_56 g_s53_55)) (mem g_s55_57 (|+->| NAT g_s52_54)) (mem g_s55_57 (perm g_s53_55))))
(define-fun |def_inprp| () Bool true)
(define-fun |def_inext| () Bool true)
(define-fun |def_inv| () Bool true)
(define-fun |def_ass| () Bool true)
(define-fun |def_cst| () Bool true)
(define-fun |def_sets| () Bool (and (= g_s33_35 (SET (mapplet g_s39_41 (mapplet g_s38_40 (mapplet g_s37_39 (mapplet g_s36_38 (mapplet g_s35_37 g_s34_36))))))) (= g_s40_42 (SET (mapplet g_s43_45 (mapplet g_s42_44 g_s41_43)))) (= g_s44_46 (SET (mapplet g_s51_53 (mapplet g_s50_52 (mapplet g_s49_51 (mapplet g_s48_50 (mapplet g_s47_49 (mapplet g_s46_48 g_s45_47))))))))))
; PO group 0 
(push 1)
(assert |def_B definitions|)
(assert |def_ctx|)
(assert |def_cst|)
(assert |def_sets|)
(define-fun lh_1 () Bool (subset g_s52_54 g_s16_18))
(define-fun lh_2 () Bool (subset g_s53_55 g_s52_54))
(define-fun lh_3 () Bool (= g_s53_55 g_s18_20))
(define-fun lh_4 () Bool (mem g_s54_56 g_s52_54))
(define-fun lh_5 () Bool (not (mem g_s54_56 g_s53_55)))
(define-fun lh_6 () Bool (mem g_s55_57 (|+->| NAT g_s52_54)))
; PO 1 in group 0
(assert (not (=> (and lh_1 lh_2 lh_3 lh_4 lh_5 lh_6) (mem g_s53_55 (FIN g_s53_55)))))
(check-sat)
(pop 1)
; PO group 1 
(push 1)
(assert |def_B definitions|)
(assert |def_ctx|)
(assert |def_cst|)
(assert |def_lprp|)
(assert |def_inprp|)
(assert |def_inext|)
(assert |def_seext|)
(assert |def_inv|)
(assert |def_ass|)
(define-fun lh_1 () Bool (mem (card g_s53_55) INT))
; PO 1 in group 1
(push 1)
(assert (not (mem g_s53_55 (FIN g_s53_55))))
(set-info :status unknown)
(check-sat)
(pop 1)
; PO 2 in group 1
(push 1)
(assert (not (=> lh_1 (mem g_s53_55 (FIN g_s53_55)))))
(set-info :status unknown)
(check-sat)
(pop 1)
(pop 1)
; PO group 2 
(push 1)
(assert |def_B definitions|)
(assert |def_ctx|)
(assert |def_cst|)
(assert |def_lprp|)
(assert |def_inprp|)
(assert |def_inext|)
(assert |def_seext|)
(assert |def_inv|)
(assert |def_ass|)
(assert (mem g_s61_58 NATURAL))
(assert (mem g_s61_58 (dom g_s55_57)))
; PO 1 in group 2
(assert (not (mem g_s55_57 (|+->| (dom g_s55_57) (ran g_s55_57)))))
(set-info :status unknown)
(check-sat)
(pop 1)
(exit)